0 3791
2401 3695
4802 3611
7203 3536
9604 3475
12005 3426
14406 3396
16807 3369
19208 3355
21609 3324
24010 3308
26411 3290
28812 3278
31213 3245
33614 3229
36015 3212
38416 3202
40817 3197
43218 3196
45619 3192
48020 3187
50421 3185
52822 3180
